10	5
0	5	3	5	4	1	2
1	1	11
2	1	6
3	1	9
4	1	7
5	1	6
6	1	10
7	2	8	10
8	1	11
9	1	11
10	1	11
11	0
0	0	0	0	0	0	0
1	6	1	0	0	0	1
2	7	0	4	5	1	0
3	5	1	4	0	0	3
4	8	0	1	0	0	0
5	1	1	0	2	0	0
6	4	0	0	0	0	3
7	4	0	0	2	0	0
8	8	2	1	4	1	5
9	8	3	3	2	4	1
10	1	0	5	0	0	4
11	0	0	0	0	0	0
3	7	6	4	5
